# Definition of EAM potential.

pair_style eam/fs
pair_coeff * * potentials/W_mason17.eam.fs W W

# Run MD

#velocity all create 300.0 4928459 loop geom
fix 1 all nve
fix 2 all langevin v_Tcorrected ${temp} ${tdamp} ${seed} #langevin thermostat
fix 3 all recenter INIT INIT INIT


